results_rootrelaxation/bin012_050_012.srr.sol
solution status: optimal solution found
objective value:                                    0
_var328_                            0.145568964406642 	(obj:0)
_var362_                           0.0180193300304425 	(obj:0)
_var694_                           0.0257491016941078 	(obj:0)
_var696_                           0.0600653669821102 	(obj:0)
_var698_                           0.0749983896309038 	(obj:0)
_var702_                            0.017159532964956 	(obj:0)
_var713_                           0.0672210070548167 	(obj:0)
_var714_                            0.271830303505563 	(obj:0)
_var717_                            0.265133968705627 	(obj:0)
_var718_                            0.149369435474611 	(obj:0)
_var720_                            0.145350514337887 	(obj:0)
_var721_                            0.295504129546492 	(obj:0)
_var728_                            0.124746191827166 	(obj:0)
_var730_                            0.159546968165104 	(obj:0)
_var733_                            0.324294728351739 	(obj:0)
_var734_                            0.323700992267427 	(obj:0)
_var736_                             0.37506756548601 	(obj:0)
_var737_                            0.581833356205243 	(obj:0)
_var739_                            0.243571826662671 	(obj:0)
_var740_                            0.509548788582344 	(obj:0)
_var745_                           0.0413542784006086 	(obj:0)
_var746_                            0.219153029874447 	(obj:0)
_var748_                            0.288824598597999 	(obj:0)
_var750_                            0.164571319746486 	(obj:0)
_var751_                            0.133873483802487 	(obj:0)
_var753_                            0.109631127454413 	(obj:0)
_var756_                            0.131478934971896 	(obj:0)
_var757_                           0.0337953458932785 	(obj:0)
_var758_                            0.129342045196758 	(obj:0)
_var760_                            0.282618376131809 	(obj:0)
_var761_                           0.0186634776690828 	(obj:0)
_var762_                           0.0585082100817498 	(obj:0)
_var763_                            0.353102131008428 	(obj:0)
_var764_                            0.462593226367484 	(obj:0)
_var765_                             0.10594268206273 	(obj:0)
_var767_                            0.349318463791902 	(obj:0)
_var772_                            0.102094600082339 	(obj:0)
_var773_                           0.0252561887184547 	(obj:0)
_var774_                            0.158883216033114 	(obj:0)
_var776_                            0.209608442254964 	(obj:0)
_var777_                            0.164571319746486 	(obj:0)
_var778_                            0.154147330568166 	(obj:0)
_var779_                           0.0413738828939606 	(obj:0)
_var781_                            0.110146445565323 	(obj:0)
_var782_                           0.0560184394263153 	(obj:0)
_var783_                           0.0812186153066276 	(obj:0)
_var784_                           0.0633785263582424 	(obj:0)
_var785_                            0.116226639145693 	(obj:0)
_var790_                           0.0543436555658543 	(obj:0)
_var791_                            0.205740755781227 	(obj:0)
_var793_                            0.194171304062892 	(obj:0)
_var797_                           0.0996636429069533 	(obj:0)
_var798_                            0.314360851507165 	(obj:0)
_var799_                            0.226840791909505 	(obj:0)
_var801_                           0.0793309826612262 	(obj:0)
_var804_                            0.425019814541494 	(obj:0)
_var809_                            0.074583894628649 	(obj:0)
_var810_                           0.0864362111796022 	(obj:0)
_var812_                            0.342053598684818 	(obj:0)
_var818_                            0.212241045647662 	(obj:0)
_var819_                             0.10776309930236 	(obj:0)
_var821_                            0.197856948812668 	(obj:0)
_var825_                           0.0191955996314353 	(obj:0)
_var826_                           0.0164229641433819 	(obj:0)
